(set-info :smt-lib-version 2.6)
(set-logic UF)
(set-info :source |Benchmarks from the paper: "Extending Sledgehammer with SMT Solvers" by Jasmin Blanchette, Sascha Bohme, and Lawrence C. Paulson, CADE 2011.  Translated to SMT2 by Andrew Reynolds and Morgan Deters.|)
(set-info :category "industrial")
(set-info :status unknown)
(declare-sort S1 0)
(declare-sort S2 0)
(declare-sort S3 0)
(declare-sort S4 0)
(declare-sort S5 0)
(declare-sort S6 0)
(declare-sort S7 0)
(declare-sort S8 0)
(declare-sort S9 0)
(declare-sort S10 0)
(declare-sort S11 0)
(declare-sort S12 0)
(declare-sort S13 0)
(declare-sort S14 0)
(declare-sort S15 0)
(declare-sort S16 0)
(declare-sort S17 0)
(declare-sort S18 0)
(declare-sort S19 0)
(declare-sort S20 0)
(declare-sort S21 0)
(declare-sort S22 0)
(declare-sort S23 0)
(declare-sort S24 0)
(declare-sort S25 0)
(declare-sort S26 0)
(declare-sort S27 0)
(declare-sort S28 0)
(declare-sort S29 0)
(declare-sort S30 0)
(declare-sort S31 0)
(declare-sort S32 0)
(declare-sort S33 0)
(declare-sort S34 0)
(declare-sort S35 0)
(declare-sort S36 0)
(declare-sort S37 0)
(declare-sort S38 0)
(declare-sort S39 0)
(declare-sort S40 0)
(declare-sort S41 0)
(declare-sort S42 0)
(declare-sort S43 0)
(declare-sort S44 0)
(declare-sort S45 0)
(declare-sort S46 0)
(declare-sort S47 0)
(declare-sort S48 0)
(declare-sort S49 0)
(declare-sort S50 0)
(declare-sort S51 0)
(declare-sort S52 0)
(declare-fun f1 () S1)
(declare-fun f2 () S1)
(declare-fun f3 (S3 S2) S1)
(declare-fun f4 () S3)
(declare-fun f5 (S4 S5) S2)
(declare-fun f6 (S6 S7) S4)
(declare-fun f7 (S8 S7) S6)
(declare-fun f8 () S8)
(declare-fun f9 () S7)
(declare-fun f10 () S7)
(declare-fun f11 (S9 S5) S5)
(declare-fun f12 (S10 S11) S9)
(declare-fun f13 () S10)
(declare-fun f14 () S11)
(declare-fun f15 (S12 S11) S5)
(declare-fun f16 () S12)
(declare-fun f17 () S11)
(declare-fun f18 (S13 S5) S3)
(declare-fun f19 (S14 S7) S13)
(declare-fun f20 (S15 S7) S14)
(declare-fun f21 () S15)
(declare-fun f22 (S16 S3) S1)
(declare-fun f23 (S17 S2) S16)
(declare-fun f24 () S17)
(declare-fun f25 (S18 S19) S3)
(declare-fun f26 () S18)
(declare-fun f27 () S19)
(declare-fun f28 (S20 S21) S1)
(declare-fun f29 (S22 S5) S20)
(declare-fun f30 () S22)
(declare-fun f31 (S23 S21) S21)
(declare-fun f32 () S23)
(declare-fun f33 (S24 S19) S21)
(declare-fun f34 (S25 S7) S24)
(declare-fun f35 () S25)
(declare-fun f36 () S7)
(declare-fun f37 (S26 S19) S19)
(declare-fun f38 (S27 S3) S26)
(declare-fun f39 () S27)
(declare-fun f40 () S26)
(declare-fun f41 () S12)
(declare-fun f42 () S23)
(declare-fun f43 (S28 S29) S1)
(declare-fun f44 (S30 S7) S28)
(declare-fun f45 () S30)
(declare-fun f46 () S29)
(declare-fun f47 (S31 S32) S1)
(declare-fun f48 (S33 S19) S31)
(declare-fun f49 () S33)
(declare-fun f50 () S32)
(declare-fun f51 (S35 S34) S34)
(declare-fun f52 (S36 S32) S35)
(declare-fun f53 () S36)
(declare-fun f54 (S37 S34) S32)
(declare-fun f55 () S37)
(declare-fun f56 (S32 S19) S1)
(declare-fun f57 (S39 S38) S38)
(declare-fun f58 (S40 S29) S39)
(declare-fun f59 () S40)
(declare-fun f60 (S41 S38) S29)
(declare-fun f61 () S41)
(declare-fun f62 (S29 S7) S1)
(declare-fun f63 (S43 S42) S42)
(declare-fun f64 (S44 S21) S43)
(declare-fun f65 () S44)
(declare-fun f66 (S45 S42) S21)
(declare-fun f67 () S45)
(declare-fun f68 (S21 S5) S1)
(declare-fun f69 () S35)
(declare-fun f70 () S39)
(declare-fun f71 () S43)
(declare-fun f72 (S46 S7) S11)
(declare-fun f73 () S46)
(declare-fun f74 (S47 S5) S9)
(declare-fun f75 () S47)
(declare-fun f76 () S6)
(declare-fun f77 (S48 S21) S20)
(declare-fun f78 () S48)
(declare-fun f79 () S6)
(declare-fun f80 () S23)
(declare-fun f81 () S24)
(declare-fun f82 (S49 S5) S32)
(declare-fun f83 (S50 S7) S49)
(declare-fun f84 (S51 S7) S50)
(declare-fun f85 () S51)
(declare-fun f86 (S52 S5) S23)
(declare-fun f87 () S52)
(declare-fun f88 () S21)
(assert (not (= f1 f2)))
(assert (forall ((?v0 S2)) (= (= (f3 f4 ?v0) f1) (not (= ?v0 (f5 (f6 (f7 f8 f9) f10) (f11 (f12 f13 f14) (f15 f16 f17))))))))
(assert (forall ((?v0 S7) (?v1 S7) (?v2 S5) (?v3 S2)) (= (= (f3 (f18 (f19 (f20 f21 ?v0) ?v1) ?v2) ?v3) f1) (not (= ?v3 (f5 (f6 (f7 f8 ?v0) ?v1) ?v2))))))
(assert (let ((?v_0 (f11 (f12 f13 f14) (f15 f16 f17)))) (not (=> (= (f22 (f23 f24 (f5 (f6 (f7 f8 f9) f10) ?v_0)) (f25 f26 f27)) f1) (not (= (f28 (f29 f30 ?v_0) (f31 f32 (f33 (f34 f35 f36) (f37 (f38 f39 f4) (f37 f40 f27))))) f1))))))
(assert (not (= (f28 (f29 f30 (f15 f41 f14)) (f31 f42 (f33 (f34 f35 f36) f27))) f1)))
(assert (not (= (f43 (f44 f45 f10) f46) f1)))
(assert (not (= (f43 (f44 f45 f9) f46) f1)))
(assert (= (f47 (f48 f49 f27) f50) f1))
(assert (forall ((?v0 S19)) (let ((?v_0 (f34 f35 f36))) (= (f33 ?v_0 ?v0) (f33 ?v_0 (f37 f40 ?v0))))))
(assert (= (f43 (f44 f45 f36) f46) f1))
(assert (forall ((?v0 S7) (?v1 S7) (?v2 S5) (?v3 S19)) (=> (= (f22 (f23 f24 (f5 (f6 (f7 f8 ?v0) ?v1) ?v2)) (f25 f26 ?v3)) f1) (=> (=> (= (f28 (f29 f30 ?v2) (f31 f32 (f33 (f34 f35 f36) ?v3))) f1) false) false))))
(assert (forall ((?v0 S7) (?v1 S7) (?v2 S5) (?v3 S19)) (=> (= (f22 (f23 f24 (f5 (f6 (f7 f8 ?v0) ?v1) ?v2)) (f25 f26 ?v3)) f1) (= (f28 (f29 f30 ?v2) (f31 f42 (f33 (f34 f35 f36) ?v3))) f1))))
(assert (forall ((?v0 S7) (?v1 S7) (?v2 S5) (?v3 S19)) (=> (= (f22 (f23 f24 (f5 (f6 (f7 f8 ?v0) ?v1) ?v2)) (f25 f26 ?v3)) f1) (= (f28 (f29 f30 ?v2) (f33 (f34 f35 f36) ?v3)) f1))))
(assert (forall ((?v0 S7) (?v1 S7) (?v2 S5) (?v3 S19)) (=> (= (f22 (f23 f24 (f5 (f6 (f7 f8 ?v0) ?v1) ?v2)) (f25 f26 ?v3)) f1) (= (f28 (f29 f30 ?v2) (f33 (f34 f35 ?v0) ?v3)) f1))))
(assert (forall ((?v0 S5) (?v1 S19) (?v2 S1)) (let ((?v_0 (=> (not (= (f28 (f29 f30 ?v0) (f31 f42 (f33 (f34 f35 f36) ?v1))) f1)) (= ?v2 f1)))) (=> ?v_0 ?v_0))))
(assert (forall ((?v0 S5) (?v1 S21)) (let ((?v_0 (f29 f30 ?v0))) (=> (= (f28 ?v_0 ?v1) f1) (= (f28 ?v_0 (f31 f32 ?v1)) f1)))))
(assert (forall ((?v0 S5) (?v1 S21)) (let ((?v_0 (f29 f30 ?v0))) (=> (= (f28 ?v_0 ?v1) f1) (= (f28 ?v_0 (f31 f42 ?v1)) f1)))))
(assert (forall ((?v0 S3) (?v1 S19)) (= (= (f37 (f38 f39 ?v0) ?v1) ?v1) (forall ((?v2 S2)) (=> (= (f22 (f23 f24 ?v2) (f25 f26 ?v1)) f1) (= (f3 ?v0 ?v2) f1))))))
(assert (forall ((?v0 S32) (?v1 S34)) (= (= (f51 (f52 f53 ?v0) ?v1) ?v1) (forall ((?v2 S19)) (=> (= (f47 (f48 f49 ?v2) (f54 f55 ?v1)) f1) (= (f56 ?v0 ?v2) f1))))))
(assert (forall ((?v0 S29) (?v1 S38)) (= (= (f57 (f58 f59 ?v0) ?v1) ?v1) (forall ((?v2 S7)) (=> (= (f43 (f44 f45 ?v2) (f60 f61 ?v1)) f1) (= (f62 ?v0 ?v2) f1))))))
(assert (forall ((?v0 S21) (?v1 S42)) (= (= (f63 (f64 f65 ?v0) ?v1) ?v1) (forall ((?v2 S5)) (=> (= (f28 (f29 f30 ?v2) (f66 f67 ?v1)) f1) (= (f68 ?v0 ?v2) f1))))))
(assert (forall ((?v0 S2) (?v1 S3) (?v2 S19)) (let ((?v_0 (f23 f24 ?v0))) (=> (= (f22 ?v_0 (f25 f26 (f37 (f38 f39 ?v1) ?v2))) f1) (and (= (f22 ?v_0 (f25 f26 ?v2)) f1) (= (f3 ?v1 ?v0) f1))))))
(assert (forall ((?v0 S19) (?v1 S32) (?v2 S34)) (let ((?v_0 (f48 f49 ?v0))) (=> (= (f47 ?v_0 (f54 f55 (f51 (f52 f53 ?v1) ?v2))) f1) (and (= (f47 ?v_0 (f54 f55 ?v2)) f1) (= (f56 ?v1 ?v0) f1))))))
(assert (forall ((?v0 S7) (?v1 S29) (?v2 S38)) (let ((?v_0 (f44 f45 ?v0))) (=> (= (f43 ?v_0 (f60 f61 (f57 (f58 f59 ?v1) ?v2))) f1) (and (= (f43 ?v_0 (f60 f61 ?v2)) f1) (= (f62 ?v1 ?v0) f1))))))
(assert (forall ((?v0 S5) (?v1 S21) (?v2 S42)) (let ((?v_0 (f29 f30 ?v0))) (=> (= (f28 ?v_0 (f66 f67 (f63 (f64 f65 ?v1) ?v2))) f1) (and (= (f28 ?v_0 (f66 f67 ?v2)) f1) (= (f68 ?v1 ?v0) f1))))))
(assert (forall ((?v0 S11) (?v1 S11) (?v2 S5)) (not (= (f15 f16 ?v0) (f11 (f12 f13 ?v1) ?v2)))))
(assert (forall ((?v0 S11) (?v1 S5) (?v2 S11)) (not (= (f11 (f12 f13 ?v0) ?v1) (f15 f16 ?v2)))))
(assert (forall ((?v0 S5) (?v1 S21)) (let ((?v_0 (f29 f30 ?v0)) (?v_1 (f31 f42 ?v1))) (=> (= (f28 ?v_0 (f31 f42 ?v_1)) f1) (= (f28 ?v_0 ?v_1) f1)))))
(assert (forall ((?v0 S21)) (let ((?v_0 (f31 f42 ?v0))) (= (f31 f42 ?v_0) ?v_0))))
(assert (forall ((?v0 S11) (?v1 S11)) (= (= (f15 f41 ?v0) (f15 f41 ?v1)) (= ?v0 ?v1))))
(assert (forall ((?v0 S5) (?v1 S21)) (let ((?v_0 (f29 f30 ?v0)) (?v_1 (f31 f32 ?v1))) (=> (= (f28 ?v_0 (f31 f32 ?v_1)) f1) (= (f28 ?v_0 ?v_1) f1)))))
(assert (forall ((?v0 S21)) (let ((?v_0 (f31 f32 ?v0))) (= (f31 f32 ?v_0) ?v_0))))
(assert (forall ((?v0 S11) (?v1 S5) (?v2 S11) (?v3 S5)) (= (= (f11 (f12 f13 ?v0) ?v1) (f11 (f12 f13 ?v2) ?v3)) (and (= ?v0 ?v2) (= ?v1 ?v3)))))
(assert (forall ((?v0 S11) (?v1 S11)) (= (= (f15 f16 ?v0) (f15 f16 ?v1)) (= ?v0 ?v1))))
(assert (forall ((?v0 S7) (?v1 S7) (?v2 S5) (?v3 S7) (?v4 S7) (?v5 S5)) (= (= (f5 (f6 (f7 f8 ?v0) ?v1) ?v2) (f5 (f6 (f7 f8 ?v3) ?v4) ?v5)) (and (= ?v0 ?v3) (and (= ?v1 ?v4) (= ?v2 ?v5))))))
(assert (forall ((?v0 S19) (?v1 S19)) (= (= (f37 f40 ?v0) (f37 f40 ?v1)) (= ?v0 ?v1))))
(assert (forall ((?v0 S34) (?v1 S34)) (= (= (f51 f69 ?v0) (f51 f69 ?v1)) (= ?v0 ?v1))))
(assert (forall ((?v0 S38) (?v1 S38)) (= (= (f57 f70 ?v0) (f57 f70 ?v1)) (= ?v0 ?v1))))
(assert (forall ((?v0 S42) (?v1 S42)) (= (= (f63 f71 ?v0) (f63 f71 ?v1)) (= ?v0 ?v1))))
(assert (forall ((?v0 S19) (?v1 S19)) (= (= (f37 f40 ?v0) ?v1) (= ?v0 (f37 f40 ?v1)))))
(assert (forall ((?v0 S34) (?v1 S34)) (= (= (f51 f69 ?v0) ?v1) (= ?v0 (f51 f69 ?v1)))))
(assert (forall ((?v0 S38) (?v1 S38)) (= (= (f57 f70 ?v0) ?v1) (= ?v0 (f57 f70 ?v1)))))
(assert (forall ((?v0 S42) (?v1 S42)) (= (= (f63 f71 ?v0) ?v1) (= ?v0 (f63 f71 ?v1)))))
(assert (forall ((?v0 S19)) (= (f37 f40 (f37 f40 ?v0)) ?v0)))
(assert (forall ((?v0 S34)) (= (f51 f69 (f51 f69 ?v0)) ?v0)))
(assert (forall ((?v0 S38)) (= (f57 f70 (f57 f70 ?v0)) ?v0)))
(assert (forall ((?v0 S42)) (= (f63 f71 (f63 f71 ?v0)) ?v0)))
(assert (forall ((?v0 S5) (?v1 S21)) (let ((?v_0 (f29 f30 ?v0))) (=> (= (f28 ?v_0 (f31 f42 ?v1)) f1) (= (f28 ?v_0 (f31 f32 ?v1)) f1)))))
(assert (forall ((?v0 S5) (?v1 S21)) (let ((?v_0 (f29 f30 ?v0))) (=> (not (= (f28 ?v_0 (f31 f32 ?v1)) f1)) (not (= (f28 ?v_0 (f31 f42 ?v1)) f1))))))
(assert (forall ((?v0 S5) (?v1 S21)) (let ((?v_0 (f29 f30 ?v0))) (let ((?v_1 (= (f28 ?v_0 (f31 f32 ?v1)) f1))) (= (or (= (f28 ?v_0 (f31 f42 ?v1)) f1) ?v_1) ?v_1)))))
(assert (forall ((?v0 S5) (?v1 S21)) (let ((?v_0 (f29 f30 ?v0))) (let ((?v_1 (= (f28 ?v_0 (f31 f42 ?v1)) f1))) (= (and ?v_1 (= (f28 ?v_0 (f31 f32 ?v1)) f1)) ?v_1)))))
(assert (forall ((?v0 S21)) (= (f31 f32 (f31 f42 ?v0)) (f31 f32 ?v0))))
(assert (forall ((?v0 S21)) (let ((?v_0 (f31 f32 ?v0))) (= (f31 f42 ?v_0) ?v_0))))
(assert (forall ((?v0 S11) (?v1 S5) (?v2 S11)) (not (= (f11 (f12 f13 ?v0) ?v1) (f15 f41 ?v2)))))
(assert (forall ((?v0 S11) (?v1 S11) (?v2 S5)) (not (= (f15 f41 ?v0) (f11 (f12 f13 ?v1) ?v2)))))
(assert (forall ((?v0 S19)) (= (f25 f26 (f37 f40 ?v0)) (f25 f26 ?v0))))
(assert (forall ((?v0 S42)) (= (f66 f67 (f63 f71 ?v0)) (f66 f67 ?v0))))
(assert (forall ((?v0 S38)) (= (f60 f61 (f57 f70 ?v0)) (f60 f61 ?v0))))
(assert (forall ((?v0 S34)) (= (f54 f55 (f51 f69 ?v0)) (f54 f55 ?v0))))
(assert (forall ((?v0 S11) (?v1 S5) (?v2 S21)) (let ((?v_0 (f31 f32 ?v2))) (=> (= (f28 (f29 f30 (f11 (f12 f13 ?v0) ?v1)) ?v_0) f1) (=> (=> (= (f28 (f29 f30 ?v1) ?v_0) f1) false) false)))))
(assert (forall ((?v0 S11) (?v1 S5) (?v2 S21)) (let ((?v_0 (f31 f32 ?v2))) (=> (= (f28 (f29 f30 (f11 (f12 f13 ?v0) ?v1)) ?v_0) f1) (= (f28 (f29 f30 ?v1) ?v_0) f1)))))
(assert (forall ((?v0 S11) (?v1 S11)) (not (= (f15 f16 ?v0) (f15 f41 ?v1)))))
(assert (forall ((?v0 S11) (?v1 S11)) (not (= (f15 f41 ?v0) (f15 f16 ?v1)))))
(assert (forall ((?v0 S19) (?v1 S19) (?v2 S3) (?v3 S3)) (=> (= ?v0 ?v1) (=> (forall ((?v4 S2)) (=> (= (f22 (f23 f24 ?v4) (f25 f26 ?v0)) f1) (= (= (f3 ?v2 ?v4) f1) (= (f3 ?v3 ?v4) f1)))) (= (f37 (f38 f39 ?v2) ?v0) (f37 (f38 f39 ?v3) ?v1))))))
(assert (forall ((?v0 S34) (?v1 S34) (?v2 S32) (?v3 S32)) (=> (= ?v0 ?v1) (=> (forall ((?v4 S19)) (=> (= (f47 (f48 f49 ?v4) (f54 f55 ?v0)) f1) (= (= (f56 ?v2 ?v4) f1) (= (f56 ?v3 ?v4) f1)))) (= (f51 (f52 f53 ?v2) ?v0) (f51 (f52 f53 ?v3) ?v1))))))
(assert (forall ((?v0 S38) (?v1 S38) (?v2 S29) (?v3 S29)) (=> (= ?v0 ?v1) (=> (forall ((?v4 S7)) (=> (= (f43 (f44 f45 ?v4) (f60 f61 ?v0)) f1) (= (= (f62 ?v2 ?v4) f1) (= (f62 ?v3 ?v4) f1)))) (= (f57 (f58 f59 ?v2) ?v0) (f57 (f58 f59 ?v3) ?v1))))))
(assert (forall ((?v0 S42) (?v1 S42) (?v2 S21) (?v3 S21)) (=> (= ?v0 ?v1) (=> (forall ((?v4 S5)) (=> (= (f28 (f29 f30 ?v4) (f66 f67 ?v0)) f1) (= (= (f68 ?v2 ?v4) f1) (= (f68 ?v3 ?v4) f1)))) (= (f63 (f64 f65 ?v2) ?v0) (f63 (f64 f65 ?v3) ?v1))))))
(assert (forall ((?v0 S19) (?v1 S7)) (=> (= (f47 (f48 f49 ?v0) f50) f1) (= (= (f28 (f29 f30 (f15 f41 (f72 f73 ?v1))) (f31 f32 (f33 (f34 f35 f36) ?v0))) f1) (= (f43 (f44 f45 ?v1) f46) f1)))))
(assert (forall ((?v0 S19) (?v1 S7)) (=> (= (f47 (f48 f49 ?v0) f50) f1) (= (= (f28 (f29 f30 (f15 f41 (f72 f73 ?v1))) (f31 f42 (f33 (f34 f35 f36) ?v0))) f1) (= (f43 (f44 f45 ?v1) f46) f1)))))
(assert (forall ((?v0 S7) (?v1 S7) (?v2 S11) (?v3 S5) (?v4 S5) (?v5 S5) (?v6 S5) (?v7 S19)) (=> (= (f22 (f23 f24 (f5 (f6 (f7 f8 ?v0) ?v1) (f11 (f12 f13 ?v2) (f11 (f74 f75 ?v3) (f11 (f74 f75 ?v4) (f11 (f74 f75 ?v5) ?v6)))))) (f25 f26 ?v7)) f1) (= (f28 (f29 f30 ?v6) (f31 f32 (f33 (f34 f35 f36) ?v7))) f1))))
(assert (forall ((?v0 S7) (?v1 S5) (?v2 S19)) (=> (= (f22 (f23 f24 (f5 (f6 f76 ?v0) ?v1)) (f25 f26 ?v2)) f1) (=> (= (f43 (f44 f45 ?v0) f46) f1) (= (f28 (f29 f30 ?v1) (f33 (f34 f35 f36) ?v2)) f1)))))
(assert (forall ((?v0 S3) (?v1 S19)) (let ((?v_0 (f34 f35 f36))) (= (f28 (f77 f78 (f31 f32 (f33 ?v_0 (f37 (f38 f39 ?v0) ?v1)))) (f31 f32 (f33 ?v_0 ?v1))) f1))))
(assert (forall ((?v0 S19)) (let ((?v_0 (f34 f35 f36))) (= (f28 (f77 f78 (f31 f32 (f33 ?v_0 (f37 f40 ?v0)))) (f31 f32 (f33 ?v_0 ?v0))) f1))))
(assert (forall ((?v0 S7) (?v1 S5) (?v2 S19)) (=> (not (= ?v0 f36)) (=> (= (f22 (f23 f24 (f5 (f6 f79 ?v0) ?v1)) (f25 f26 ?v2)) f1) (= (f28 (f29 f30 ?v1) (f33 (f34 f35 ?v0) ?v2)) f1)))))
(assert (forall ((?v0 S21) (?v1 S5) (?v2 S11)) (let ((?v_0 (f31 f80 ?v0))) (=> (= (f68 ?v_0 ?v1) f1) (=> (= (f68 ?v0 (f15 f41 ?v2)) f1) (= (f68 ?v_0 (f11 (f12 f13 ?v2) ?v1)) f1))))))
(assert (forall ((?v0 S5) (?v1 S19)) (let ((?v_0 (f29 f30 ?v0))) (=> (= (f28 ?v_0 (f31 f32 (f33 (f34 f35 f36) ?v1))) f1) (= (f28 ?v_0 (f33 f81 ?v1)) f1)))))
(assert (forall ((?v0 S7) (?v1 S7) (?v2 S5) (?v3 S19)) (= (= (f56 (f82 (f83 (f84 f85 ?v0) ?v1) ?v2) ?v3) f1) (exists ((?v4 S5)) (let ((?v_0 (f29 f30 ?v2))) (and (= (f22 (f23 f24 (f5 (f6 (f7 f8 ?v0) ?v1) ?v4)) (f25 f26 ?v3)) f1) (and (= (f28 ?v_0 (f31 f32 (f31 (f86 f87 ?v4) f88))) f1) (not (= (f28 ?v_0 (f31 f32 (f33 (f34 f35 f36) (f37 (f38 f39 (f18 (f19 (f20 f21 ?v0) ?v1) ?v4)) (f37 f40 ?v3))))) f1)))))))))
(assert (forall ((?v0 S21) (?v1 S5)) (=> (= (f68 ?v0 ?v1) f1) (= (f68 (f31 f80 ?v0) ?v1) f1))))
(assert (forall ((?v0 S5) (?v1 S5) (?v2 S21)) (let ((?v_0 (f31 f42 ?v2))) (=> (= (f28 (f29 f30 (f11 (f74 f75 ?v0) ?v1)) ?v_0) f1) (=> (=> (= (f28 (f29 f30 ?v0) ?v_0) f1) (=> (= (f28 (f29 f30 ?v1) ?v_0) f1) false)) false)))))
(assert (forall ((?v0 S5) (?v1 S5) (?v2 S21)) (let ((?v_0 (f31 f32 ?v2))) (=> (= (f28 (f29 f30 (f11 (f74 f75 ?v0) ?v1)) ?v_0) f1) (=> (=> (= (f28 (f29 f30 ?v0) ?v_0) f1) (=> (= (f28 (f29 f30 ?v1) ?v_0) f1) false)) false)))))
(assert (forall ((?v0 S5)) (=> (= (f28 (f29 f30 ?v0) (f31 f32 f88)) f1) false)))
(assert (forall ((?v0 S21) (?v1 S5) (?v2 S5)) (let ((?v_0 (f31 f80 ?v0))) (=> (= (f68 ?v_0 ?v1) f1) (=> (= (f68 ?v_0 ?v2) f1) (= (f68 ?v_0 (f11 (f74 f75 ?v1) ?v2)) f1))))))
(assert (forall ((?v0 S7) (?v1 S5) (?v2 S7) (?v3 S5)) (not (= (f5 (f6 f79 ?v0) ?v1) (f5 (f6 f76 ?v2) ?v3)))))
(assert (forall ((?v0 S7) (?v1 S5) (?v2 S7) (?v3 S5)) (not (= (f5 (f6 f76 ?v0) ?v1) (f5 (f6 f79 ?v2) ?v3)))))
(assert (forall ((?v0 S7) (?v1 S5) (?v2 S7) (?v3 S5)) (= (= (f5 (f6 f79 ?v0) ?v1) (f5 (f6 f79 ?v2) ?v3)) (and (= ?v0 ?v2) (= ?v1 ?v3)))))
(assert (forall ((?v0 S7) (?v1 S5) (?v2 S7) (?v3 S5)) (= (= (f5 (f6 f76 ?v0) ?v1) (f5 (f6 f76 ?v2) ?v3)) (and (= ?v0 ?v2) (= ?v1 ?v3)))))
(assert (forall ((?v0 S5) (?v1 S5) (?v2 S5) (?v3 S5)) (= (= (f11 (f74 f75 ?v0) ?v1) (f11 (f74 f75 ?v2) ?v3)) (and (= ?v0 ?v2) (= ?v1 ?v3)))))
(assert (forall ((?v0 S5) (?v1 S5) (?v2 S21)) (let ((?v_0 (f86 f87 (f11 (f74 f75 ?v0) ?v1)))) (= (f31 f42 (f31 ?v_0 ?v2)) (f31 ?v_0 (f31 f42 (f31 (f86 f87 ?v0) (f31 (f86 f87 ?v1) ?v2))))))))
(assert (forall ((?v0 S11) (?v1 S5) (?v2 S5) (?v3 S21)) (let ((?v_1 (f86 f87 (f15 f41 ?v0))) (?v_0 (f86 f87 (f11 (f74 f75 ?v1) ?v2)))) (= (f31 ?v_1 (f31 ?v_0 ?v3)) (f31 ?v_0 (f31 ?v_1 ?v3))))))
(assert (forall ((?v0 S5) (?v1 S5) (?v2 S21)) (let ((?v_0 (f86 f87 (f11 (f74 f75 ?v0) ?v1)))) (= (f31 f32 (f31 ?v_0 ?v2)) (f31 ?v_0 (f31 f32 (f31 (f86 f87 ?v0) (f31 (f86 f87 ?v1) ?v2))))))))
(assert (forall ((?v0 S11) (?v1 S5) (?v2 S5) (?v3 S5) (?v4 S21)) (let ((?v_1 (f86 f87 (f11 (f12 f13 ?v0) ?v1))) (?v_0 (f86 f87 (f11 (f74 f75 ?v2) ?v3)))) (= (f31 ?v_1 (f31 ?v_0 ?v4)) (f31 ?v_0 (f31 ?v_1 ?v4))))))
(assert (forall ((?v0 S5) (?v1 S21) (?v2 S21)) (=> (= (f28 (f29 f30 ?v0) (f31 f42 ?v1)) f1) (=> (= (f28 (f77 f78 ?v1) ?v2) f1) (= (f31 f42 (f31 (f86 f87 ?v0) ?v2)) (f31 f42 ?v2))))))
(check-sat)
(exit)
